c ren 1 -> 1
c ren 2 -> 2
c ren 3 -> 3
c ren 5 -> 4
c ren 7 -> 5
c ren 8 -> 6
c ren 9 -> 7
c ren 14 -> 8
c ren 15 -> 9
c ren 16 -> 10
c ren 17 -> 11
c ren 21 -> 12
c ren 27 -> 13
c ren 28 -> 14
c ren 29 -> 15
c ren 32 -> 16
c ren 33 -> 17
c ren 34 -> 18
c ren 37 -> 19
c ren 38 -> 20
c ren 40 -> 21
c ren 43 -> 22
c ren 44 -> 23
c ren 47 -> 24
c ren 48 -> 25
c ren 49 -> 26
c ren 52 -> 27
c ren 53 -> 28
c ren 56 -> 29
c ren 67 -> 30
c ren 71 -> 31
p cnf 31 99
a 1 2 3 5 6 7 8 9 10 12 14 16 19 22 24 27 29 0
d 17 9 10 0
d 20 2 3 0
d 25 19 22 0
d 30 16 24 0
d 31 27 29 0
e 4 11 13 15 18 21 23 26 28 0
-1 2 3 -4 0
1 -2 -3 4 0
1 2 -3 -4 0
-1 -2 3 4 0
1 -2 3 -4 0
-1 -2 -3 -4 0
1 2 3 4 0
-1 2 -3 4 0
-2 -3 -4 -5 6 -7 -8 -11 -12 -13 0
-6 7 -14 15 0
1 3 -4 -5 -6 7 -8 -11 12 -13 0
-1 -4 -5 -6 7 -8 -11 -12 -13 0
-2 -3 -4 5 -6 -7 -8 -11 -12 -13 0
-2 -3 -4 -5 -6 7 8 11 -12 -13 0
1 2 -4 -5 -6 7 -8 -11 12 -13 0
-1 -4 -5 -6 7 8 11 -12 -13 0
3 -4 5 -6 -7 -8 -11 12 -13 0
1 2 -4 -5 -6 7 8 11 12 -13 0
6 -7 -14 15 0
1 3 -4 -5 6 -7 -8 -11 12 -13 0
1 3 -4 -5 -6 7 8 11 12 -13 0
-1 -4 -5 6 -7 8 11 -12 -13 0
-2 -3 -4 -5 6 -7 8 11 -12 -13 0
2 -4 5 -6 -7 -8 -11 12 -13 0
2 22 23 0
1 3 -4 -5 6 -7 8 11 12 -13 0
4 13 0
3 22 23 0
-1 -4 -5 6 -7 -8 -11 -12 -13 0
1 2 -4 -5 6 -7 -8 -11 12 -13 0
-2 -3 -4 -5 -6 7 -8 -11 -12 -13 0
2 -4 5 -6 -7 8 11 12 -13 0
10 12 13 -15 -18 -21 -23 -25 -26 -28 -29 -31 0
3 -4 5 -6 -7 8 11 12 -13 0
-16 -17 18 0
16 17 18 0
6 7 14 15 0
-14 -19 -20 21 0
-2 -3 -4 5 6 7 -8 -11 -12 -13 0
19 20 21 0
14 19 21 0
3 -4 5 6 7 -8 -11 12 -13 0
-8 -11 -12 13 -15 -18 -21 -23 -25 -26 -28 -29 31 0
-2 -3 -4 5 6 7 8 11 -12 -13 0
1 2 -4 -5 6 -7 8 11 12 -13 0
-6 -7 14 15 0
-2 -3 -22 23 0
3 -4 5 6 7 8 11 12 -13 0
8 9 11 13 -15 -18 -21 -23 -25 -26 -28 -29 0
-24 -25 26 0
24 25 26 0
-17 -27 28 0
17 27 28 0
9 11 12 13 -15 -18 -21 -23 -25 -26 -28 -29 0
8 10 11 13 -15 -18 -21 -23 -25 -26 -28 -29 0
8 9 13 -15 -18 -21 -23 25 -26 -28 29 -31 0
10 11 12 13 -15 -18 -21 -23 -25 -26 -28 -29 0
9 12 13 -15 -18 -21 -23 25 -26 -28 29 -31 0
8 10 13 -15 -18 -21 -23 25 -26 -28 29 -31 0
8 12 13 -15 -18 -21 -23 25 -26 -28 29 -30 0
8 -12 13 -15 -18 -21 -23 25 -26 -28 29 30 0
-8 -12 13 -15 -18 -21 -23 25 -26 -28 29 -30 0
-8 12 13 -15 -18 -21 -23 25 -26 -28 29 30 0
10 11 12 13 -15 -18 -21 -23 25 -26 -28 29 0
8 9 11 13 -15 -18 -21 -23 25 -26 -28 29 0
-8 -11 -12 13 -15 -18 -21 -23 25 -26 -28 29 31 0
1 -5 13 14 -15 -18 20 -21 -23 -25 -26 -28 -29 0
1 5 13 14 -15 -18 -20 -21 -23 25 -26 -28 29 0
10 12 13 -15 -18 -21 -23 25 -26 -28 29 -31 0
8 10 11 13 -15 -18 -21 -23 25 -26 -28 29 0
-1 -5 13 -14 -15 -18 20 -21 -23 25 -26 -28 29 0
-1 -5 13 14 -15 -18 -20 -21 -23 25 -26 -28 29 0
-1 5 13 -14 -15 -18 -20 -21 -23 25 -26 -28 29 0
1 5 13 -14 -15 -18 20 -21 -23 25 -26 -28 29 0
9 11 12 13 -15 -18 -21 -23 25 -26 -28 29 0
-1 5 13 14 -15 -18 20 -21 -23 -25 -26 -28 -29 0
-1 5 13 14 -15 -18 20 -21 -23 25 -26 -28 29 0
-2 -3 -4 5 -6 -7 8 11 -12 -13 0
-1 -5 13 -14 -15 -18 20 -21 -23 -25 -26 -28 -29 0
1 -5 13 -14 -15 -18 -20 -21 -23 -25 -26 -28 -29 0
1 5 13 -14 -15 -18 20 -21 -23 -25 -26 -28 -29 0
1 -5 13 14 -15 -18 20 -21 -23 25 -26 -28 29 0
2 -4 5 6 7 8 11 12 -13 0
2 -4 5 6 7 -8 -11 12 -13 0
-1 5 13 -14 -15 -18 -20 -21 -23 -25 -26 -28 -29 0
1 -5 13 -14 -15 -18 -20 -21 -23 25 -26 -28 29 0
-9 -10 -11 0
9 10 -11 0
-9 10 11 0
9 -10 11 0
-8 12 13 -15 -18 -21 -23 -25 -26 -28 -29 30 0
8 10 13 -15 -18 -21 -23 -25 -26 -28 -29 -31 0
1 5 13 14 -15 -18 -20 -21 -23 -25 -26 -28 -29 0
-8 -12 13 -15 -18 -21 -23 -25 -26 -28 -29 -30 0
8 12 13 -15 -18 -21 -23 -25 -26 -28 -29 -30 0
8 9 13 -15 -18 -21 -23 -25 -26 -28 -29 -31 0
-1 -5 13 14 -15 -18 -20 -21 -23 -25 -26 -28 -29 0
9 12 13 -15 -18 -21 -23 -25 -26 -28 -29 -31 0
8 -12 13 -15 -18 -21 -23 -25 -26 -28 -29 30 0
